200
200
200
200
200
200
200
200
200
200
200
200
200
200
200
200
200
200
200
200
200
200
200
200
200
300
300
300
300
300
300
300
300
300
300
400
400
400
400
400
511
1023
2047
4095
240
672
1792
4608
11520
28160
400
400
400
400
400
50
50
50
50
50
500
500
500
500
500
500
500
500
500
500
1000
1000
1000
1000
1000
1000
1000
1000
1000
1000
